c Instancia generada aleatoriamente
p edge 20 52
e 1 6
e 1 13
e 1 16
e 1 17
e 1 20
e 2 6
e 2 15
e 3 8
e 3 9
e 3 11
e 4 7
e 4 8
e 4 9
e 4 10
e 4 16
e 5 7
e 5 8
e 5 15
e 5 18
e 6 7
e 6 10
e 6 11
e 6 16
e 6 18
e 7 12
e 7 18
e 8 9
e 8 12
e 8 18
e 8 19
e 9 10
e 9 15
e 9 17
e 9 20
e 10 11
e 10 12
e 10 14
e 10 15
e 10 16
e 10 20
e 11 12
e 11 13
e 11 15
e 11 16
e 12 20
e 13 14
e 13 17
e 14 15
e 17 19
e 17 20
e 18 19
e 19 20
